c defined variables: 
p cnf 85 57
a 1 2 3 4 5 6 7 8 9 10 11 12 13 0
d 14 10 11 13 0
d 15 2 6 7 10 11 0
d 16 1 5 10 13 0
d 17 7 0
d 18 1 2 4 5 0
d 19 1 10 0
d 20 3 10 0
d 21 10 13 0
d 22 1 6 10 0
d 23 4 7 8 10 0
d 24 4 9 11 0
d 25 4 6 0
d 26 6 7 9 12 0
d 27 1 7 0
-2 -13 -14 15 -18 0
-4 -10 -15 -16 18 0
-10 -11 -15 17 18 0
-2 13 -16 -18 -19 0
4 -7 15 -18 19 0
6 -11 -14 15 -20 0
-1 10 -14 -18 -20 0
-2 -4 -15 18 -20 0
7 -13 15 -16 20 0
3 -4 17 18 20 0
-1 7 15 -19 20 0
1 5 16 -19 20 0
1 10 -16 -20 21 0
5 10 -18 -20 21 0
-11 13 -14 -18 22 0
-7 11 -15 -18 22 0
-4 6 17 18 22 0
2 7 15 21 22 0
-10 13 -16 -19 -23 0
-7 -11 14 -20 -23 0
-3 -7 15 -20 -23 0
4 13 14 17 23 0
-6 10 15 -21 23 0
-4 -11 14 15 -24 0
-4 10 -16 -20 -24 0
-3 9 -15 20 -24 0
-6 11 -14 -15 24 0
1 -9 -14 16 24 0
6 -7 -15 21 24 0
-1 6 -15 16 -25 0
-10 -11 -14 17 -25 0
-6 7 -17 -20 -25 0
5 7 -16 -23 -25 0
10 11 22 24 -25 0
-1 -5 -17 -18 25 0
-2 10 15 20 25 0
6 -7 -17 21 25 0
8 -11 -15 23 25 0
-5 -6 -15 16 -26 0
6 -13 14 17 -26 0
1 -12 15 18 -26 0
1 6 -18 -20 -26 0
4 -7 -18 -21 -26 0
5 13 -16 21 -26 0
9 -13 -21 -23 -26 0
-2 12 -18 -24 -26 0
5 -7 14 18 26 0
-1 10 -19 -24 26 0
5 9 -16 24 26 0
4 -9 23 -25 26 0
1 -10 -22 25 26 0
-1 -4 15 18 -27 0
6 -13 14 -25 -27 0
-1 6 16 -25 -27 0
2 -4 -18 -22 27 0
-4 -10 -14 -23 27 0
7 10 -20 -26 27 0
